Route #1: 26 67 34 46 8 52 27 4
Route #2: 30 21 47 36 69 71 60 70 20 37 48
Route #3: 45 29 5 15 57 13 54 19 53 35 7
Route #4: 14 59 11 66 65 38
Route #5: 72 58 10 31 55 25 50 18 24 49
Route #6: 17 3 44 32 9 39 40 12
Route #7: 51 16 63 23 56 41 43 42 64 22 1
Route #8: 6 33 73 62 28 61 74 2 68 75
Cost 764